problems/csplib-prob015/SchursLemma-models/noch/O2/lingeling/model_1_2-3-18-solution000001.eprime-solution
language ESSENCE' 1.0

letting boxes_PartitionAsSet_ExplicitR6_ExplicitVarSizeWithDummy be
        [[1, 9, 11, 13, 15, 18, 19, 19, 19, 19, 19, 19, 19, 19, 19, 19, 19, 19; int(1..18)],
         [2, 4, 7, 8, 16, 17, 19, 19, 19, 19, 19, 19, 19, 19, 19, 19, 19, 19; int(1..18)],
         [3, 5, 6, 10, 12, 14, 19, 19, 19, 19, 19, 19, 19, 19, 19, 19, 19, 19; int(1..18)]; int(1..3)]
