problems/csplib-prob015/SchursLemma-models/noch/O2/lingeling/model_1_2-3-18-solution000001.solution
language Essence 1.3

letting boxes be partition({1, 9, 11, 13, 15, 18}, {2, 4, 7, 8, 16, 17}, {3, 5, 6, 10, 12, 14})
